
--- Job bchfcnet.gms Start 02/08/22 17:27:44 34.3.0 rac355f3 WEX-WEI x86 64bit/MS Windows
--- Applying:
    C:\GAMS\34\gmsprmNT.txt
--- GAMS Parameters defined
    Input C:\Users\dekhi\Desktop\gamsworld\FCNetLib\test\bchfcnet.gms
    PageSize 0
    ScrDir C:\Users\dekhi\Desktop\gamsworld\FCNetLib\test\225a\
    SysDir C:\GAMS\34\
    LogOption 3
    ErrMsg 1
    ErrorLog 99
    IDE 1
    ResLim 3600
    LstTitleLeftAligned 1
Licensee: Eval License                                   S211214|0002AW-GEN
          Ostfalia Hochschule fuer angewandte Wissenschaften        DCE1645
          C:\Users\dekhi\Documents\GAMS\gamslice.txt
          License Admin: Mohamed Ali Dekhil, dekhil.medali@gmail.com       
          Evaluation license: Not for commercial or production use
GAMS 34.3.0   Copyright (C) 1987-2021 GAMS Development. All rights reserved
--- Starting compilation
--- bchfcnet.gms(34) 2 Mb
--- . decl.gms(15) 2 Mb
--- bchfcnet.gms(38) 2 Mb
--- . mc11.inc(1750) 3 Mb
--- bchfcnet.gms(67) 3 Mb
--- . equs.gms(20) 3 Mb
--- bchfcnet.gms(97) 3 Mb
--- call rm -f bchout_i.gdx startcut.txt startheur.txt cuthist.gdx agap.txt rgap.txt cntfail.txt
--- bchfcnet.gms(118) 3 Mb
--- Starting execution: elapsed 0:00:00.095
--- bchfcnet.gms(1808) 4 Mb
--- GDX File (execute_unload) C:\Users\dekhi\Desktop\gamsworld\FCNetLib\test\net.gdx
--- bchfcnet.gms(1899) 4 Mb
--- GDXin=C:\Users\dekhi\Desktop\gamsworld\FCNetLib\test\points\mc11.gdx
--- bchfcnet.gms(1899) 5 Mb
--- GDX File (execute_load) C:\Users\dekhi\Desktop\gamsworld\FCNetLib\test\points\mc11.gdx
--- Generating MIP model master
--- bchfcnet.gms(1903) 6 Mb
---   1,921 rows  3,041 columns  7,601 non-zeroes
---   1,520 discrete-columns
--- Executing CPLEX (Solvelink=2): elapsed 0:00:00.143

IBM ILOG CPLEX   34.3.0 rac355f3 Released Feb 25, 2021 WEI x86 64bit/MS Window

--- GAMS/Cplex Link licensed for continuous and discrete problems.

Reading parameter(s) from "C:\Users\dekhi\Desktop\gamsworld\FCNetLib\test\cplex.op2"
>>  mipstart 1
Finished reading from "C:\Users\dekhi\Desktop\gamsworld\FCNetLib\test\cplex.op2"

--- Space for names approximately 0.11 Mb
--- Use option 'names no' to turn use of names off
--- GMO memory 1.07 Mb (peak 1.10 Mb)
--- Dictionary memory 0.00 Mb
--- Cplex 20.1.0.0 link memory 0.08 Mb (peak 0.33 Mb)
--- Starting Cplex

Version identifier: 20.1.0.0 | 2020-11-10 | 9bedb6d68
CPXPARAM_Threads                                 1
CPXPARAM_MIP_Display                             4
CPXPARAM_TimeLimit                               3600
CPXPARAM_MIP_Tolerances_AbsMIPGap                0
CPXPARAM_MIP_Tolerances_MIPGap                   0
Generic callback                                 0x50
Processing 1 MIP starts.
MIP start 'm1' defined solution with objective 12043.0000.
1 of 1 MIP starts provided solutions.
MIP start 'm1' defined initial solution with objective 12043.0000.
Tried aggregator 2 times.
MIP Presolve eliminated 400 rows and 3 columns.
MIP Presolve added 797 rows and 0 columns.
Aggregator did 1 substitutions.
Reduced MIP has 2316 rows, 3037 columns, and 6871 nonzeros.
Reduced MIP has 1519 binaries, 0 generals, 0 SOSs, and 0 indicators.
Presolve time = 0.02 sec. (27.05 ticks)
Probing fixed 0 vars, tightened 5 bounds.
Probing time = 0.00 sec. (0.40 ticks)
Tried aggregator 1 time.
Detecting symmetries...
MIP Presolve modified 11 coefficients.
Reduced MIP has 2316 rows, 3037 columns, and 6871 nonzeros.
Reduced MIP has 1519 binaries, 0 generals, 0 SOSs, and 0 indicators.
Presolve time = 0.00 sec. (20.74 ticks)
Probing time = 0.00 sec. (0.40 ticks)
Clique table members: 6.
MIP emphasis: balance optimality and feasibility.
MIP search method: dynamic search.
Parallel mode: none, using 1 thread.
Tried aggregator 1 time.
LP Presolve eliminated 1120 rows and 1121 columns.
Aggregator did 399 substitutions.
Reduced LP has 797 rows, 1517 columns, and 3830 nonzeros.
Presolve time = 0.02 sec. (1.78 ticks)

Iteration log . . .
Iteration:     1   Dual objective     =           213.957547
Iteration:    79   Dual objective     =           395.122642
Iteration:   144   Dual objective     =           465.424528
Iteration:   217   Dual objective     =           539.816038
Iteration:   279   Dual objective     =           567.698113
Iteration:   343   Dual objective     =           589.594340
Initializing dual steep norms . . .
Root relaxation solution time = 0.02 sec. (12.71 ticks)

        Nodes                                         Cuts/
   Node  Left     Objective  IInf  Best Integer    Best Bound    ItCnt     Gap

*     0+    0                        12043.0000        0.0000           100.00%
Found incumbent of value 12043.000000 after 0.03 sec. (67.48 ticks)
      0     0      608.8443   363    12043.0000      608.8443      403   94.94%
      0     0     8627.2899   406    12043.0000     Cuts: 638     1671   28.36%
      0     0    10046.6198   343    12043.0000     Cuts: 353     2265   16.58%
      0     0    10509.9324   363    12043.0000     Cuts: 294     2673   12.73%
      0     0    10837.3278   379    12043.0000     Cuts: 277     3095   10.01%
      0     0    10989.4996   404    12043.0000     Cuts: 236     3422    8.75%
Detecting symmetries...
      0     0    11123.6337   386    12043.0000     Cuts: 282     3720    7.63%
      0     0    11204.0137   370    12043.0000     Cuts: 235     3970    6.97%
      0     0    11256.2534   370    12043.0000     Cuts: 220     4195    6.53%
      0     0    11290.9611   341    12043.0000     Cuts: 184     4406    6.24%
      0     0    11313.9428   354    12043.0000     Cuts: 143     4558    6.05%
      0     0    11333.6416   326    12043.0000     Cuts: 146     4717    5.89%
      0     0    11353.8367   299    12043.0000     Cuts: 149     4842    5.72%
      0     0    11363.2128   330    12043.0000     Cuts: 105     4937    5.64%
      0     0    11376.2027   318    12043.0000     Cuts: 112     5032    5.54%
      0     0    11379.9740   270    12043.0000     Cuts: 101     5121    5.51%
      0     0    11385.4993   300    12043.0000      Cuts: 84     5241    5.46%
      0     0    11387.9113   268    12043.0000      Cuts: 99     5308    5.44%
      0     0    11392.2201   281    12043.0000      Cuts: 65     5386    5.40%
      0     0    11393.8943   253    12043.0000      Cuts: 68     5444    5.39%
      0     0    11396.3583   255    12043.0000      Cuts: 75     5515    5.37%
      0     0    11397.4776   270    12043.0000      Cuts: 43     5563    5.36%
      0     0    11399.3196   284    12043.0000      Cuts: 53     5615    5.34%
Detecting symmetries...
      0     2    11399.3196   282    12043.0000    11399.3224     5615    5.34%
Elapsed time = 1.28 sec. (1418.48 ticks, tree = 0.01 MB, solutions = 1)
     60    62    11629.6265   132    12043.0000    11399.5787     8365    5.34%
    117   111    11428.8976   192    12043.0000    11399.6607    10290    5.34%
                                                      Cuts: 9                  
    169   163    11558.9123   133    12043.0000    11399.6607    13788    5.34%
*   220+  199                        11934.0000    11399.6607             4.48%
Found incumbent of value 11934.000000 after 2.22 sec. (2351.17 ticks)
    238   208    11400.5381   283    11934.0000    11399.8366    16164    4.48%
                                                      Cuts: 5                  
    287   257    11683.0130   121    11934.0000    11399.8366    18674    4.48%
    366   329    11611.2321    90    11934.0000    11400.5381    22039    4.47%
                                                      Cuts: 6                  
    430   388    11688.0102   198    11934.0000    11401.4016    24215    4.46%
                                                      Cuts: 4                  

Performing restart 1

Repeating presolve.
Tried aggregator 1 time.
Reduced MIP has 2316 rows, 3037 columns, and 6871 nonzeros.
Reduced MIP has 1519 binaries, 0 generals, 0 SOSs, and 0 indicators.
Presolve time = 0.00 sec. (19.22 ticks)
Tried aggregator 1 time.
Reduced MIP has 2316 rows, 3037 columns, and 6871 nonzeros.
Reduced MIP has 1519 binaries, 0 generals, 0 SOSs, and 0 indicators.
Presolve time = 0.00 sec. (20.83 ticks)
Represolve time = 0.01 sec. (47.29 ticks)
Tried aggregator 1 time.
LP Presolve eliminated 25 rows and 25 columns.
Aggregator did 6 substitutions.
Reduced LP has 3687 rows, 3006 columns, and 18668 nonzeros.
Presolve time = 0.00 sec. (2.54 ticks)
Initializing dual steep norms . . .

Iteration log . . .
Iteration:     1   Dual objective     =             0.000000
Perturbation started.
Iteration:   101   Dual objective     =             0.000000
Iteration:   284   Dual objective     =          1918.561693
Iteration:   489   Dual objective     =          5196.061785
Iteration:   690   Dual objective     =          9422.062113
Iteration:   893   Dual objective     =         10497.883793
Iteration:  1099   Dual objective     =         10976.191313
Iteration:  1261   Dual objective     =         11210.566634
Iteration:  1418   Dual objective     =         11288.577857
Iteration:  1581   Dual objective     =         11335.972102
Iteration:  1731   Dual objective     =         11361.967021
Iteration:  1868   Dual objective     =         11376.416416
Iteration:  1997   Dual objective     =         11383.756809
Iteration:  2116   Dual objective     =         11391.218996
Iteration:  2251   Dual objective     =         11396.650326
Iteration:  2415   Dual objective     =         11403.978388
Iteration:  2558   Dual objective     =         11404.549532
Removing perturbation.
Initializing dual steep norms . . .
    497     0    11420.7309   366    11934.0000     Cuts: 286    30398    4.30%
    497     0    11441.1173   404    11934.0000     Cuts: 373    30982    4.13%
    497     0    11475.5952   386    11934.0000     Cuts: 483    31624    3.84%
*   497+    0                        11920.0000    11475.5952             3.73%
Found incumbent of value 11920.000000 after 4.11 sec. (4291.75 ticks)
    497     0    11482.3543   374    11920.0000     Cuts: 412    32090    3.67%
    497     0    11491.0870   328    11920.0000     Cuts: 364    32519    3.60%
    497     0    11628.6446   313    11920.0000     Cuts: 393    33114    2.44%
    497     0    11638.8735   295    11920.0000     Cuts: 352    33571    2.36%
    497     0    11651.3060   308    11920.0000     Cuts: 322    34094    2.25%
    497     0    11655.8870   267    11920.0000     Cuts: 322    34463    2.22%
    497     0    11658.9330   295    11920.0000     Cuts: 302    34817    2.19%
    497     0    11659.3932   203    11920.0000      Cuts: 93    34975    2.19%
    497     0    11669.5708   236    11920.0000     Cuts: 218    35205    2.10%
    497     0    11670.0129   219    11920.0000     Cuts: 155    35353    2.10%
    497     0    11677.2175   266    11920.0000     Cuts: 105    35585    2.04%
    497     0    11684.1293   237    11920.0000     Cuts: 143    35827    1.98%
    497     0    11687.4881   179    11920.0000     Cuts: 322    36185    1.95%
*   497+    0                        11691.0000    11687.4881             0.03%
Found incumbent of value 11691.000000 after 6.17 sec. (6505.91 ticks)
    497     0    11688.3132   188    11691.0000     Cuts: 136    36382    0.02%
*   497+    0                        11689.0000    11688.3132             0.01%
Found incumbent of value 11689.000000 after 6.41 sec. (6682.93 ticks)
    497     0  -1.00000e+75     0    11689.0000    11688.3132    36382    0.01%
    497     0        cutoff          11689.0000    11688.3132    36382    0.01%

Cover cuts applied:  286
Flow cuts applied:  1044
Mixed integer rounding cuts applied:  152
Flow path cuts applied:  12
Zero-half cuts applied:  36
Multi commodity flow cuts applied:  4
Lift and project cuts applied:  23
Gomory fractional cuts applied:  69

Root node processing (before b&c):
  Real time             =    1.28 sec. (1418.19 ticks)
Sequential b&c:
  Real time             =    5.13 sec. (5266.97 ticks)
                          ------------
Total (root+branch&cut) =    6.41 sec. (6685.15 ticks)

--- MIP status (101): integer optimal solution.
--- Cplex Time: 6.41sec (det. 6685.16 ticks)

--- Fixing integer variables and solving final LP...

Version identifier: 20.1.0.0 | 2020-11-10 | 9bedb6d68
CPXPARAM_Advance                                 2
CPXPARAM_Threads                                 1
CPXPARAM_MIP_Display                             4
CPXPARAM_TimeLimit                               3600
CPXPARAM_MIP_Tolerances_AbsMIPGap                0
CPXPARAM_MIP_Tolerances_MIPGap                   0
Tried aggregator 1 time.
LP Presolve eliminated 1917 rows and 3038 columns.
Aggregator did 3 substitutions.
All rows and columns eliminated.
Presolve time = 0.00 sec. (1.17 ticks)

--- Fixed MIP status (1): optimal.
--- Cplex Time: 0.00sec (det. 1.98 ticks)


Proven optimal solution
MIP Solution:        11689.000000    (36382 iterations, 497 nodes)
Final Solve:         11689.000000    (0 iterations)

Best possible:       11689.000000
Absolute gap:            0.000000
Relative gap:            0.000000

--- Reading solution for model master
*** Status: Normal completion
--- Job bchfcnet.gms Stop 02/08/22 17:27:50 elapsed 0:00:06.600
